letting n_nurses=25
letting n_days=7
letting n_shift_types=4
letting max_covers=12
letting t_covers=87
letting covers=[12,3,3,0,8,11,0,0,8,6,0,0,1,1,4,0,0,3,3,0,3,4,0,0,8,9,0,0]
letting prefes=[1,1,2,3,1,3,1,4,1,3,1,4,1,3,1,4,1,3,1,4,1,1,2,3,1,3,1,4,1,4,2,3,4,3,2,4,4,3,2,4,4,3,2,4,4,3,2,4,1,4,2,3,4,3,2,4,2,4,2,3,4,3,2,4,4,3,2,4,4,3,2,4,4,3,2,4,2,4,2,3,4,3,2,4,2,4,2,1,1,1,2,4,1,1,2,4,1,1,2,4,1,1,2,4,2,4,2,1,1,1,2,4,2,4,2,3,1,3,2,4,1,3,2,4,1,3,2,4,1,3,2,4,2,4,2,3,1,3,2,4,2,4,2,3,1,3,2,4,1,3,2,4,1,3,2,4,1,3,2,4,2,4,2,3,1,3,2,4,2,4,1,3,1,3,2,1,1,3,2,1,1,3,2,1,1,3,2,1,2,4,1,3,1,3,2,1,2,4,2,3,1,3,2,4,1,3,2,4,1,3,2,4,1,3,2,4,2,4,2,3,1,3,2,4,2,4,2,3,1,3,2,4,1,3,2,4,1,3,2,4,1,3,2,4,2,4,2,3,1,3,2,4,1,4,2,3,1,3,2,4,1,3,2,4,1,3,2,4,1,3,2,4,1,4,2,3,1,3,2,4,1,4,2,3,1,3,2,1,1,3,2,1,1,3,2,1,1,3,2,1,1,4,2,3,1,3,2,1,2,4,2,3,1,3,1,4,1,3,1,4,1,3,1,4,1,3,1,4,2,4,2,3,1,3,1,4,2,4,2,3,1,3,2,1,1,3,2,1,1,3,2,1,1,3,2,1,2,4,2,3,1,3,2,1,2,4,2,1,1,1,1,4,1,1,1,4,1,1,1,4,1,1,1,4,2,4,2,1,1,1,1,4,2,4,2,1,1,1,2,1,1,1,2,1,1,1,2,1,1,1,2,1,2,4,2,1,1,1,2,1,2,4,1,3,4,3,2,4,4,3,2,4,4,3,2,4,4,3,2,4,2,4,1,3,4,3,2,4,2,4,2,1,1,1,2,4,1,1,2,4,1,1,2,4,1,1,2,4,2,4,2,1,1,1,2,4,2,1,2,3,4,3,1,4,4,3,1,4,4,3,1,4,4,3,1,4,2,1,2,3,4,3,1,4,2,4,2,1,1,1,2,4,1,1,2,4,1,1,2,4,1,1,2,4,2,4,2,1,1,1,2,4,2,1,1,3,1,3,1,4,1,3,1,4,1,3,1,4,1,3,1,4,2,1,1,3,1,3,1,4,2,1,1,3,1,3,2,4,1,3,2,4,1,3,2,4,1,3,2,4,2,1,1,3,1,3,2,4,2,4,2,3,1,3,2,4,1,3,2,4,1,3,2,4,1,3,2,4,2,4,2,3,1,3,2,4,1,1,2,3,1,3,2,1,1,3,2,1,1,3,2,1,1,3,2,1,1,1,2,3,1,3,2,1,2,4,2,3,4,3,2,4,4,3,2,4,4,3,2,4,4,3,2,4,2,4,2,3,4,3,2,4,2,4,1,3,1,3,2,4,1,3,2,4,1,3,2,4,1,3,2,4,2,4,1,3,1,3,2,4]
letting ub =  319
